
(set-logic ALL) 

(declare-datatype MyList ((Nil) (Cons (head Real) (tail MyList)) )) 
(declare-fun l0 () MyList) 
(declare-fun l1 () MyList) 
(declare-fun l2 () MyList) 
(declare-fun l3 () MyList) 
(declare-fun i0 () Real) 
(declare-fun i1 () Real) 
(assert (and (= l2 Nil) (= l2 Nil) (= l1 l1)) )
(assert (is-Nil Nil) )
(assert (not (= l2 l0)) )
(assert (is-Nil l3) )
(assert (and (is-Cons l2) (= l1 Nil) (= l1 l3)) )
(assert (and (is-Nil Nil) (= l0 Nil) (= l1 l3) (= l2 Nil)) )
(assert (not (is-Nil l2)) )
(assert (not (= l3 Nil)) )
(check-sat)
